17	4
15	15	9	11	
0	0	0	0	0	3	2	3	4	
8	0	0	0	3	3	5	10	11	
4	0	1	0	0	3	5	8	15	
9	0	0	0	4	1	7	
9	8	0	0	0	3	6	16	17	
50	0	0	0	2	1	17	
125	0	0	4	0	3	12	15	17	
25	0	3	0	0	3	9	17	17	
50	0	0	0	5	2	14	17	
150	0	10	0	0	2	13	17	
225	4	0	0	0	1	17	
25	0	0	9	0	3	14	16	17	
10	7	0	0	0	1	17	
10	0	9	0	0	1	17	
5	2	0	0	0	2	17	17	
7	0	10	0	0	2	17	17	
0	0	0	0	0	0	
